(set-logic QF_LIA)
(declare-fun x0 () Int)
(declare-fun x1 () Int)
(declare-fun x2 () Int)
(declare-fun x3 () Int)
(declare-fun x4 () Int)
(declare-fun x5 () Int)
(declare-fun x6 () Int)
(declare-fun x7 () Int)
(declare-fun x8 () Int)
(declare-fun x9 () Int)
(declare-fun A1 () Bool)
(declare-fun A2 () Bool)
(declare-fun A6 () Bool)
(declare-fun A7 () Bool)
(declare-fun A9 () Bool)
(assert (let ((.def_0 (* 1 x1))) (let ((.def_1 (< .def_0 (- 1)))) (let ((.def_2 (* 1 x3))) (let ((.def_3 (* 1 x2))) (let ((.def_4 (+ .def_3 .def_2))) (let ((.def_5 (< .def_4 1))) (let ((.def_6 (not .def_5))) (let ((.def_7 (and .def_6 .def_1))) (let ((.def_8 (* (- 1) x8))) (let ((.def_9 (* (- 1) x3))) (let ((.def_10 (+ .def_9 .def_8))) (let ((.def_11 (< .def_10 1))) (let ((.def_12 (* 1 x0))) (let ((.def_13 (* 1 x4))) (let ((.def_14 (+ .def_13 .def_12))) (let ((.def_15 (< .def_14 (- 1)))) (let ((.def_16 (not .def_15))) (let ((.def_17 (and .def_16 .def_11))) (let ((.def_18 (not .def_17))) (let ((.def_19 (and .def_18 .def_7))) (let ((.def_20 (not A2))) (let ((.def_21 (and A7 .def_20))) (let ((.def_22 (not A9))) (let ((.def_23 (+ .def_13 .def_0))) (let ((.def_24 (< .def_23 1))) (let ((.def_25 (and .def_24 .def_22))) (let ((.def_26 (not .def_25))) (let ((.def_27 (or .def_26 .def_21))) (let ((.def_28 (not .def_27))) (let ((.def_29 (and .def_28 .def_19))) (let ((.def_30 (not .def_29))) (let ((.def_31 (< .def_2 (- 1)))) (let ((.def_32 (or .def_22 .def_31))) (let ((.def_33 (not .def_32))) (let ((.def_34 (* 1 x8))) (let ((.def_35 (< .def_34 (- 1)))) (let ((.def_36 (* (- 1) x1))) (let ((.def_37 (* (- 1) x5))) (let ((.def_38 (+ .def_37 .def_36))) (let ((.def_39 (< .def_38 (- 1)))) (let ((.def_40 (not .def_39))) (let ((.def_41 (or .def_40 .def_35))) (let ((.def_42 (and .def_41 .def_33))) (let ((.def_43 (not .def_42))) (let ((.def_44 (not A1))) (let ((.def_45 (not A6))) (let ((.def_46 (and .def_45 .def_44))) (let ((.def_47 (not .def_46))) (let ((.def_48 (* 1 x7))) (let ((.def_49 (< .def_48 (- 1)))) (let ((.def_50 (not .def_49))) (let ((.def_51 (and .def_50 A9))) (let ((.def_52 (not .def_51))) (let ((.def_53 (and .def_52 .def_47))) (let ((.def_54 (= .def_53 .def_43))) (let ((.def_55 (or .def_54 .def_30))) (let ((.def_56 (<= x9 1))) (let ((.def_57 (<= 0 x9))) (let ((.def_58 (<= x8 1))) (let ((.def_59 (<= 0 x8))) (let ((.def_60 (<= x7 1))) (let ((.def_61 (<= 0 x7))) (let ((.def_62 (<= x6 1))) (let ((.def_63 (<= 0 x6))) (let ((.def_64 (<= x5 1))) (let ((.def_65 (<= 0 x5))) (let ((.def_66 (<= x4 1))) (let ((.def_67 (<= 0 x4))) (let ((.def_68 (<= x3 1))) (let ((.def_69 (<= 0 x3))) (let ((.def_70 (<= x2 1))) (let ((.def_71 (<= 0 x2))) (let ((.def_72 (<= x1 1))) (let ((.def_73 (<= 0 x1))) (let ((.def_74 (<= x0 1))) (let ((.def_75 (<= 0 x0))) (let ((.def_76 (and .def_75 .def_74 .def_73 .def_72 .def_71 .def_70 .def_69 .def_68 .def_67 .def_66 .def_65 .def_64 .def_63 .def_62 .def_61 .def_60 .def_59 .def_58 .def_57 .def_56 .def_55))) .def_76))))))))))))))))))))))))))))))))))))))))))))))))))))))))))))))))))))))))))))))
(check-sat)
